NAME : rnd31_50.tsp
TYPE : TSP
DIMENSION : 50
EDGE_WEIGHT_TYPE : EUC_2D
NODE_COORD_SECTION
1 704 496
2 243 656
3 74 231
4 616 597
5 868 240
6 106 680
7 753 516
8 550 913
9 838 522
10 905 379
11 718 574
12 855 984
13 550 857
14 707 358
15 154 159
16 912 850
17 735 126
18 543 499
19 619 581
20 80 50
21 686 430
22 642 134
23 79 95
24 539 440
25 848 924
26 424 837
27 329 985
28 95 708
29 20 319
30 649 59
31 524 511
32 191 305
33 880 457
34 857 102
35 614 587
36 546 957
37 798 868
38 972 175
39 564 539
40 757 507
41 535 171
42 72 129
43 350 522
44 388 270
45 973 138
46 840 123
47 683 125
48 527 141
49 394 619
50 612 22
